575,352
831,406
414,542
733,334
548,474
602,-97
591,406
237,476
681,76
435,67
709,415
533,258
892,115
975,257
628,379
898,833
576,551
1066,467
477,806
624,424
1028,583
1001,569
695,494
390,195
844,726
658,554
681,376
699,463
672,378
1214,322
738,388
